
  12    4
  10   10   10   10

   0   0   0   0   0   2 2 5 
   5  10  10  10  10   2 9 3 
   7  10  10  10  10   2 6 4 
   9  10  10  10  10   2 8 7 
   1  10  10  10  10   2 8 7 
   4  10  10  10  10   1 7 
   5  10  10  10  10   2 11 10 
   8  10  10  10  10   2 11 10 
   9  10  10  10  10   2 11 10 
   2  10  10  10  10   1 12
   8  10  10  10  10   1 12
   0   0   0   0   0   0 
